3260.0 96485.0 
3314.0 94798.0 
3344.0 94722.0 
3362.0 93910.0 
3262.0 95584.0 
3214.0 97863.0 
3216.0 97694.0 
3359.0 94496.0 
3352.0 94684.0 
3343.0 94765.0 
3269.0 95412.0 
3243.0 97501.0 
3375.0 93779.0 
3409.0 93660.0 
3412.0 93623.0 
3303.0 94980.0 
3244.0 97457.0 
